evm/ejemplos_results/EthPriceMintModule_run_code_of_0_block_77_0_input.txt
value = 1;
fgas = [2];
fsize = [1];
states = 
[|  s0
 | '.'
 |];
program = [POP];
% time elapsed: 0.38 s
----------
==========
% time elapsed: 0.38 s
% [value > 0]
